benchmarks/VRPTW/TSPTW/solution/n40w60.004.txt.solution
1 14 20 27 34 4 8 16 29 10 31 19 38 5 30 32 7 25 33 37 39 15 9 24 11 6 12 40 22 35 17 36 21 3 28 26 13 2 23 18 41 
382
